objective value:                                10845
t_x_0                                               1 	(obj:0)
t_x_3                                               1 	(obj:13)
t_x_6                                               1 	(obj:53)
t_x_10                                              1 	(obj:32)
t_x_11                                              1 	(obj:26)
t_x_13                                              1 	(obj:16)
t_x_19                                              1 	(obj:39)
t_x_21                                              1 	(obj:3)
t_x_22                                              1 	(obj:16)
t_x_23                                              1 	(obj:1)
t_x_25                                              1 	(obj:40)
t_x_27                                              1 	(obj:6)
t_x_32                                              1 	(obj:8)
t_x_34                                              1 	(obj:4)
t_x_37                                              1 	(obj:33)
t_x_41                                              1 	(obj:21)
t_x_48                                              1 	(obj:21)
t_x_52                                              1 	(obj:5)
t_x_53                                              1 	(obj:26)
t_x_59                                              1 	(obj:4)
t_x_61                                              1 	(obj:29)
t_x_62                                              1 	(obj:3)
t_x_63                                              1 	(obj:27)
t_x_68                                              1 	(obj:20)
t_x_70                                              1 	(obj:70)
t_x_71                                              1 	(obj:5)
t_x_72                                              1 	(obj:14)
t_x_73                                              1 	(obj:8)
t_x_75                                              1 	(obj:29)
t_x_77                                              1 	(obj:13)
t_x_79                                              1 	(obj:26)
t_x_80                                              1 	(obj:51)
t_x_83                                              1 	(obj:21)
t_x_89                                              1 	(obj:56)
t_x_94                                              1 	(obj:40)
t_x_96                                              1 	(obj:15)
t_x_98                                              1 	(obj:16)
t_x_99                                              1 	(obj:21)
t_x_104                                             1 	(obj:20)
t_x_109                                             1 	(obj:33)
t_x_111                                             1 	(obj:7)
t_x_112                                             1 	(obj:28)
t_x_113                                             1 	(obj:16)
t_x_117                                             1 	(obj:39)
t_x_118                                             1 	(obj:27)
t_x_125                                             1 	(obj:2)
t_x_130                                             1 	(obj:7)
t_x_133                                             1 	(obj:45)
t_x_137                                             1 	(obj:5)
t_x_138                                             1 	(obj:22)
t_x_139                                             1 	(obj:39)
t_x_140                                             1 	(obj:9)
t_x_143                                             1 	(obj:15)
t_x_148                                             1 	(obj:51)
t_x_150                                             1 	(obj:4)
t_x_151                                             1 	(obj:4)
t_x_153                                             1 	(obj:8)
t_x_160                                             1 	(obj:66)
t_x_164                                             1 	(obj:8)
t_x_172                                             1 	(obj:16)
t_x_173                                             1 	(obj:6)
t_x_176                                             1 	(obj:27)
t_x_182                                             1 	(obj:9)
t_x_183                                             1 	(obj:16)
t_x_184                                             1 	(obj:2)
t_x_185                                             1 	(obj:10)
t_x_191                                             1 	(obj:32)
t_x_193                                             1 	(obj:37)
t_x_195                                             1 	(obj:3)
t_x_196                                             1 	(obj:7)
t_x_199                                             1 	(obj:1)
t_x_200                                             1 	(obj:16)
t_x_202                                             1 	(obj:6)
t_x_204                                             1 	(obj:7)
t_x_206                                             1 	(obj:62)
t_x_207                                             1 	(obj:84)
t_x_211                                             1 	(obj:9)
t_x_219                                             1 	(obj:10)
t_x_225                                             1 	(obj:30)
t_x_228                                             1 	(obj:14)
t_x_229                                             1 	(obj:7)
t_x_230                                             1 	(obj:45)
t_x_239                                             1 	(obj:31)
t_x_241                                             1 	(obj:6)
t_x_252                                             1 	(obj:2)
t_x_253                                             1 	(obj:0)
t_x_254                                             1 	(obj:28)
t_x_259                                             1 	(obj:35)
t_x_260                                             1 	(obj:2)
t_x_261                                             1 	(obj:5)
t_x_262                                             1 	(obj:32)
t_x_263                                             1 	(obj:24)
t_x_268                                             1 	(obj:4)
t_x_275                                             1 	(obj:8)
t_x_281                                             1 	(obj:5)
t_x_285                                             1 	(obj:7)
t_x_293                                             1 	(obj:6)
t_x_294                                             1 	(obj:9)
t_x_298                                             1 	(obj:19)
t_x_306                                             1 	(obj:12)
t_x_314                                             1 	(obj:47)
t_x_317                                             1 	(obj:0)
t_x_318                                             1 	(obj:5)
t_x_322                                             1 	(obj:56)
t_x_327                                             1 	(obj:9)
t_x_331                                             1 	(obj:39)
t_x_332                                             1 	(obj:19)
t_x_335                                             1 	(obj:22)
t_x_336                                             1 	(obj:1)
t_x_337                                             1 	(obj:27)
t_x_338                                             1 	(obj:14)
t_x_341                                             1 	(obj:23)
t_x_342                                             1 	(obj:48)
t_x_345                                             1 	(obj:0)
t_x_352                                             1 	(obj:9)
t_x_357                                             1 	(obj:43)
t_x_359                                             1 	(obj:24)
t_x_360                                             1 	(obj:36)
t_x_361                                             1 	(obj:4)
t_x_368                                             1 	(obj:1)
t_x_373                                             1 	(obj:26)
t_x_382                                             1 	(obj:54)
t_x_387                                             1 	(obj:33)
t_x_390                                             1 	(obj:21)
t_x_396                                             1 	(obj:1)
t_x_404                                             1 	(obj:43)
t_x_412                                             1 	(obj:20)
t_x_416                                             1 	(obj:2)
t_x_417                                             1 	(obj:18)
t_x_423                                             1 	(obj:23)
t_x_425                                             1 	(obj:6)
t_x_426                                             1 	(obj:32)
t_x_433                                             1 	(obj:1)
t_x_434                                             1 	(obj:8)
t_x_437                                             1 	(obj:17)
t_x_438                                             1 	(obj:32)
t_x_444                                             1 	(obj:39)
t_x_447                                             1 	(obj:27)
t_x_448                                             1 	(obj:42)
t_x_449                                             1 	(obj:16)
t_x_451                                             1 	(obj:16)
t_x_456                                             1 	(obj:19)
t_x_461                                             1 	(obj:19)
t_x_464                                             1 	(obj:19)
t_x_468                                             1 	(obj:52)
t_x_473                                             1 	(obj:10)
t_x_474                                             1 	(obj:10)
t_x_475                                             1 	(obj:2)
t_x_483                                             1 	(obj:21)
t_x_485                                             1 	(obj:31)
t_x_486                                             1 	(obj:4)
t_x_489                                             1 	(obj:19)
t_x_490                                             1 	(obj:21)
t_x_491                                             1 	(obj:16)
t_x_494                                             1 	(obj:2)
t_x_495                                             1 	(obj:22)
t_x_499                                             1 	(obj:15)
t_x_501                                             1 	(obj:6)
t_x_502                                             1 	(obj:26)
t_x_509                                             1 	(obj:10)
t_x_510                                             1 	(obj:25)
t_x_513                                             1 	(obj:24)
t_x_514                                             1 	(obj:7)
t_x_517                                             1 	(obj:10)
t_x_519                                             1 	(obj:23)
t_x_521                                             1 	(obj:34)
t_x_525                                             1 	(obj:19)
t_x_526                                             1 	(obj:1)
t_x_527                                             1 	(obj:13)
t_x_551                                             1 	(obj:4)
t_x_552                                             1 	(obj:1)
t_x_553                                             1 	(obj:6)
t_x_559                                             1 	(obj:6)
t_x_561                                             1 	(obj:21)
t_x_562                                             1 	(obj:33)
t_x_564                                             1 	(obj:26)
t_x_565                                             1 	(obj:3)
t_x_566                                             1 	(obj:15)
t_x_575                                             1 	(obj:17)
t_x_579                                             1 	(obj:5)
t_x_585                                             1 	(obj:12)
t_x_588                                             1 	(obj:6)
t_x_589                                             1 	(obj:20)
t_x_601                                             1 	(obj:34)
t_x_603                                             1 	(obj:49)
t_x_607                                             1 	(obj:39)
t_x_609                                             1 	(obj:12)
t_x_612                                             1 	(obj:3)
t_x_613                                             1 	(obj:1)
t_x_616                                             1 	(obj:1)
t_x_617                                             1 	(obj:19)
t_x_620                                             1 	(obj:0)
t_x_621                                             1 	(obj:30)
t_x_623                                             1 	(obj:34)
t_x_628                                             1 	(obj:15)
t_x_632                                             1 	(obj:44)
t_x_635                                             1 	(obj:15)
t_x_637                                             1 	(obj:14)
t_x_646                                             1 	(obj:47)
t_x_649                                             1 	(obj:19)
t_x_655                                             1 	(obj:22)
t_x_656                                             1 	(obj:35)
t_x_661                                             1 	(obj:56)
t_x_666                                             1 	(obj:2)
t_x_668                                             1 	(obj:18)
t_x_669                                             1 	(obj:6)
t_x_673                                             1 	(obj:0)
t_x_679                                             1 	(obj:9)
t_x_687                                             1 	(obj:2)
t_x_691                                             1 	(obj:14)
t_x_694                                             1 	(obj:0)
t_x_697                                             1 	(obj:44)
t_x_705                                             1 	(obj:2)
t_x_708                                             1 	(obj:11)
t_x_709                                             1 	(obj:13)
t_x_712                                             1 	(obj:4)
t_x_713                                             1 	(obj:2)
t_x_718                                             1 	(obj:32)
t_x_719                                             1 	(obj:24)
t_x_720                                             1 	(obj:16)
t_x_721                                             1 	(obj:4)
t_x_722                                             1 	(obj:41)
t_x_726                                             1 	(obj:29)
t_x_727                                             1 	(obj:0)
t_x_730                                             1 	(obj:12)
t_x_739                                             1 	(obj:32)
t_x_755                                             1 	(obj:29)
t_x_762                                             1 	(obj:5)
t_x_768                                             1 	(obj:7)
t_x_769                                             1 	(obj:40)
t_x_773                                             1 	(obj:11)
t_x_775                                             1 	(obj:22)
t_x_779                                             1 	(obj:53)
t_x_780                                             1 	(obj:22)
t_x_782                                             1 	(obj:33)
t_x_786                                             1 	(obj:17)
t_x_787                                             1 	(obj:16)
t_x_789                                             1 	(obj:23)
t_x_794                                             1 	(obj:17)
t_x_796                                             1 	(obj:31)
t_x_801                                             1 	(obj:25)
t_x_809                                             1 	(obj:1)
t_x_820                                             1 	(obj:27)
t_x_825                                             1 	(obj:39)
t_x_827                                             1 	(obj:57)
t_x_831                                             1 	(obj:28)
t_x_832                                             1 	(obj:15)
t_x_840                                             1 	(obj:1)
t_x_843                                             1 	(obj:23)
t_x_845                                             1 	(obj:8)
t_x_850                                             1 	(obj:13)
t_x_851                                             1 	(obj:21)
t_x_853                                             1 	(obj:19)
t_x_857                                             1 	(obj:18)
t_x_858                                             1 	(obj:3)
t_x_863                                             1 	(obj:20)
t_x_879                                             1 	(obj:23)
t_x_880                                             1 	(obj:12)
t_x_882                                             1 	(obj:22)
t_x_887                                             1 	(obj:20)
t_x_888                                             1 	(obj:2)
t_x_893                                             1 	(obj:11)
t_x_895                                             1 	(obj:43)
t_x_896                                             1 	(obj:3)
t_x_897                                             1 	(obj:11)
t_x_899                                             1 	(obj:16)
t_x_904                                             1 	(obj:9)
t_x_908                                             1 	(obj:10)
t_x_911                                             1 	(obj:2)
t_x_916                                             1 	(obj:46)
t_x_924                                             1 	(obj:44)
t_x_926                                             1 	(obj:53)
t_x_932                                             1 	(obj:19)
t_x_933                                             1 	(obj:2)
t_x_935                                             1 	(obj:20)
t_x_942                                             1 	(obj:36)
t_x_946                                             1 	(obj:12)
t_x_954                                             1 	(obj:8)
t_x_961                                             1 	(obj:19)
t_x_962                                             1 	(obj:18)
t_x_966                                             1 	(obj:30)
t_x_967                                             1 	(obj:12)
t_x_968                                             1 	(obj:23)
t_x_973                                             1 	(obj:25)
t_x_975                                             1 	(obj:7)
t_x_986                                             1 	(obj:14)
t_x_988                                             1 	(obj:27)
t_x_990                                             1 	(obj:41)
t_x_997                                             1 	(obj:8)
t_x_998                                             1 	(obj:5)
t_x_1000                                            1 	(obj:14)
t_x_1004                                            1 	(obj:1)
t_x_1018                                            1 	(obj:1)
t_x_1021                                            1 	(obj:31)
t_x_1024                                            1 	(obj:1)
t_x_1025                                            1 	(obj:3)
t_x_1035                                            1 	(obj:16)
t_x_1036                                            1 	(obj:26)
t_x_1045                                            1 	(obj:10)
t_x_1046                                            1 	(obj:7)
t_x_1050                                            1 	(obj:25)
t_x_1052                                            1 	(obj:6)
t_x_1054                                            1 	(obj:17)
t_x_1056                                            1 	(obj:19)
t_x_1057                                            1 	(obj:29)
t_x_1069                                            1 	(obj:36)
t_x_1072                                            1 	(obj:10)
t_x_1074                                            1 	(obj:78)
t_x_1075                                            1 	(obj:5)
t_x_1076                                            1 	(obj:18)
t_x_1079                                            1 	(obj:48)
t_x_1090                                            1 	(obj:7)
t_x_1098                                            1 	(obj:11)
t_x_1102                                            1 	(obj:1)
t_x_1106                                            1 	(obj:2)
t_x_1109                                            1 	(obj:8)
t_x_1111                                            1 	(obj:16)
t_x_1112                                            1 	(obj:3)
t_x_1118                                            1 	(obj:4)
t_x_1122                                            1 	(obj:8)
t_x_1123                                            1 	(obj:5)
t_x_1125                                            1 	(obj:15)
t_x_1130                                            1 	(obj:8)
t_x_1138                                            1 	(obj:4)
t_x_1141                                            1 	(obj:0)
t_x_1142                                            1 	(obj:4)
t_x_1144                                            1 	(obj:5)
t_x_1148                                            1 	(obj:21)
t_x_1152                                            1 	(obj:3)
t_x_1153                                            1 	(obj:16)
t_x_1156                                            1 	(obj:12)
t_x_1158                                            1 	(obj:1)
t_x_1159                                            1 	(obj:0)
t_x_1161                                            1 	(obj:31)
t_x_1165                                            1 	(obj:19)
t_x_1178                                            1 	(obj:26)
t_x_1180                                            1 	(obj:21)
t_x_1181                                            1 	(obj:3)
t_x_1183                                            1 	(obj:0)
t_x_1186                                            1 	(obj:19)
t_x_1194                                            1 	(obj:1)
t_x_1195                                            1 	(obj:23)
t_x_1202                                            1 	(obj:16)
t_x_1209                                            1 	(obj:8)
t_x_1210                                            1 	(obj:14)
t_x_1212                                            1 	(obj:16)
t_x_1216                                            1 	(obj:15)
t_x_1219                                            1 	(obj:1)
t_x_1222                                            1 	(obj:20)
t_x_1223                                            1 	(obj:21)
t_x_1224                                            1 	(obj:41)
t_x_1227                                            1 	(obj:5)
t_x_1230                                            1 	(obj:12)
t_x_1232                                            1 	(obj:3)
t_x_1233                                            1 	(obj:2)
t_x_1241                                            1 	(obj:1)
t_x_1244                                            1 	(obj:26)
t_x_1248                                            1 	(obj:39)
t_x_1253                                            1 	(obj:18)
t_x_1254                                            1 	(obj:8)
t_x_1257                                            1 	(obj:5)
t_x_1259                                            1 	(obj:31)
t_x_1260                                            1 	(obj:10)
t_x_1261                                            1 	(obj:18)
t_x_1268                                            1 	(obj:45)
t_x_1269                                            1 	(obj:8)
t_x_1271                                            1 	(obj:4)
t_x_1275                                            1 	(obj:18)
t_x_1278                                            1 	(obj:5)
t_x_1279                                            1 	(obj:1)
t_x_1281                                            1 	(obj:35)
t_x_1283                                            1 	(obj:10)
t_x_1285                                            1 	(obj:0)
t_x_1292                                            1 	(obj:25)
t_x_1298                                            1 	(obj:23)
t_x_1299                                            1 	(obj:45)
t_x_1300                                            1 	(obj:3)
t_x_1304                                            1 	(obj:16)
t_x_1305                                            1 	(obj:12)
t_x_1307                                            1 	(obj:15)
t_x_1308                                            1 	(obj:7)
t_x_1309                                            1 	(obj:27)
t_x_1315                                            1 	(obj:15)
t_x_1318                                            1 	(obj:4)
t_x_1319                                            1 	(obj:9)
t_x_1321                                            1 	(obj:7)
t_x_1323                                            1 	(obj:11)
t_x_1326                                            1 	(obj:19)
t_x_1332                                            1 	(obj:29)
t_x_1337                                            1 	(obj:15)
t_x_1341                                            1 	(obj:12)
t_x_1343                                            1 	(obj:16)
t_x_1344                                            1 	(obj:4)
t_x_1351                                            1 	(obj:8)
t_x_1352                                            1 	(obj:15)
t_x_1353                                            1 	(obj:43)
t_x_1357                                            1 	(obj:0)
t_x_1360                                            1 	(obj:0)
t_x_1363                                            1 	(obj:66)
t_x_1365                                            1 	(obj:6)
t_x_1366                                            1 	(obj:5)
t_x_1374                                            1 	(obj:21)
t_x_1376                                            1 	(obj:9)
t_x_1383                                            1 	(obj:14)
t_x_1390                                            1 	(obj:25)
t_x_1391                                            1 	(obj:24)
t_x_1392                                            1 	(obj:9)
t_x_1393                                            1 	(obj:6)
t_x_1394                                            1 	(obj:41)
t_x_1395                                            1 	(obj:19)
t_x_1396                                            1 	(obj:39)
t_x_1398                                            1 	(obj:24)
t_x_1399                                            1 	(obj:3)
t_x_1403                                            1 	(obj:25)
t_x_1418                                            1 	(obj:33)
t_x_1419                                            1 	(obj:14)
t_x_1420                                            1 	(obj:31)
t_x_1423                                            1 	(obj:10)
t_x_1425                                            1 	(obj:1)
t_x_1430                                            1 	(obj:2)
t_x_1433                                            1 	(obj:24)
t_x_1447                                            1 	(obj:16)
t_x_1448                                            1 	(obj:18)
t_x_1449                                            1 	(obj:2)
t_x_1450                                            1 	(obj:40)
t_x_1454                                            1 	(obj:0)
t_x_1461                                            1 	(obj:21)
t_x_1462                                            1 	(obj:1)
t_x_1465                                            1 	(obj:23)
t_x_1467                                            1 	(obj:0)
t_x_1469                                            1 	(obj:2)
t_x_1470                                            1 	(obj:12)
t_x_1472                                            1 	(obj:37)
t_x_1474                                            1 	(obj:42)
t_x_1482                                            1 	(obj:9)
t_x_1487                                            1 	(obj:15)
t_x_1488                                            1 	(obj:26)
t_x_1489                                            1 	(obj:20)
t_x_1492                                            1 	(obj:20)
t_x_1493                                            1 	(obj:22)
t_x_1495                                            1 	(obj:18)
t_x_1496                                            1 	(obj:36)
t_x_1503                                            1 	(obj:32)
t_x_1507                                            1 	(obj:11)
t_x_1508                                            1 	(obj:17)
t_x_1515                                            1 	(obj:21)
t_x_1516                                            1 	(obj:13)
t_x_1522                                            1 	(obj:8)
t_x_1524                                            1 	(obj:1)
t_x_1526                                            1 	(obj:16)
t_x_1529                                            1 	(obj:56)
t_x_1536                                            1 	(obj:10)
t_x_1545                                            1 	(obj:24)
t_x_1546                                            1 	(obj:14)
t_x_1547                                            1 	(obj:6)
t_x_1551                                            1 	(obj:32)
t_x_1554                                            1 	(obj:1)
t_x_1556                                            1 	(obj:11)
t_x_1563                                            1 	(obj:25)
t_x_1565                                            1 	(obj:2)
t_x_1566                                            1 	(obj:14)
t_x_1569                                            1 	(obj:3)
t_x_1573                                            1 	(obj:7)
t_x_1575                                            1 	(obj:10)
t_x_1577                                            1 	(obj:53)
t_x_1578                                            1 	(obj:1)
t_x_1583                                            1 	(obj:6)
t_x_1584                                            1 	(obj:22)
t_x_1585                                            1 	(obj:12)
t_x_1587                                            1 	(obj:8)
t_x_1597                                            1 	(obj:13)
t_x_1600                                            1 	(obj:77)
t_x_1606                                            1 	(obj:32)
t_x_1610                                            1 	(obj:33)
t_x_1613                                            1 	(obj:1)
t_x_1623                                            1 	(obj:41)
t_x_1624                                            1 	(obj:28)
t_x_1632                                            1 	(obj:7)
t_x_1636                                            1 	(obj:37)
t_x_1637                                            1 	(obj:16)
t_x_1638                                            1 	(obj:2)
t_x_1639                                            1 	(obj:3)
t_x_1640                                            1 	(obj:42)
t_x_1643                                            1 	(obj:14)
t_x_1644                                            1 	(obj:1)
t_x_1647                                            1 	(obj:33)
t_x_1651                                            1 	(obj:6)
t_x_1653                                            1 	(obj:9)
t_x_1654                                            1 	(obj:1)
t_x_1655                                            1 	(obj:7)
t_x_1659                                            1 	(obj:40)
t_x_1660                                            1 	(obj:49)
t_x_1667                                            1 	(obj:33)
t_x_1671                                            1 	(obj:14)
t_x_1672                                            1 	(obj:19)
t_x_1675                                            1 	(obj:30)
t_x_1677                                            1 	(obj:81)
t_x_1678                                            1 	(obj:10)
t_x_1680                                            1 	(obj:13)
t_x_1683                                            1 	(obj:31)
t_x_1687                                            1 	(obj:7)
t_x_1691                                            1 	(obj:19)
t_x_1692                                            1 	(obj:10)
t_x_1697                                            1 	(obj:2)
t_x_1716                                            1 	(obj:10)
t_x_1723                                            1 	(obj:15)
t_x_1729                                            1 	(obj:35)
t_x_1731                                            1 	(obj:17)
t_x_1735                                            1 	(obj:9)
t_x_1737                                            1 	(obj:7)
t_x_1738                                            1 	(obj:26)
t_x_1746                                            1 	(obj:43)
t_x_1747                                            1 	(obj:58)
t_x_1748                                            1 	(obj:20)
t_x_1749                                            1 	(obj:8)
t_x_1753                                            1 	(obj:58)
t_x_1755                                            1 	(obj:16)
t_x_1757                                            1 	(obj:13)
t_x_1763                                            1 	(obj:25)
t_x_1774                                            1 	(obj:6)
t_x_1775                                            1 	(obj:20)
t_x_1784                                            1 	(obj:13)
t_x_1788                                            1 	(obj:10)
t_x_1795                                            1 	(obj:9)
t_x_1796                                            1 	(obj:15)
t_x_1800                                            1 	(obj:2)
t_x_1804                                            1 	(obj:9)
t_x_1807                                            1 	(obj:14)
t_x_1811                                            1 	(obj:7)
t_x_1828                                            1 	(obj:18)
t_x_1832                                            1 	(obj:22)
t_x_1836                                            1 	(obj:0)
t_x_1837                                            1 	(obj:20)
t_x_1840                                            1 	(obj:36)
t_x_1850                                            1 	(obj:11)
t_x_1859                                            1 	(obj:19)
t_x_1860                                            1 	(obj:4)
t_x_1862                                            1 	(obj:74)
t_x_1864                                            1 	(obj:0)
t_x_1867                                            1 	(obj:18)
t_x_1872                                            1 	(obj:6)
t_x_1873                                            1 	(obj:4)
t_x_1875                                            1 	(obj:8)
t_x_1876                                            1 	(obj:46)
t_x_1878                                            1 	(obj:1)
t_x_1880                                            1 	(obj:20)
t_x_1885                                            1 	(obj:35)
t_x_1887                                            1 	(obj:19)
t_x_1888                                            1 	(obj:17)
t_x_1889                                            1 	(obj:17)
t_x_1890                                            1 	(obj:6)
t_x_1893                                            1 	(obj:2)
t_x_1904                                            1 	(obj:3)
t_x_1905                                            1 	(obj:22)
t_x_1912                                            1 	(obj:31)
t_x_1913                                            1 	(obj:15)
t_x_1922                                            1 	(obj:20)
t_x_1924                                            1 	(obj:55)
t_x_1925                                            1 	(obj:27)
t_x_1927                                            1 	(obj:30)
t_x_1930                                            1 	(obj:0)
t_x_1932                                            1 	(obj:23)
t_x_1933                                            1 	(obj:77)
t_x_1935                                            1 	(obj:19)
t_x_1937                                            1 	(obj:48)
t_x_1938                                            1 	(obj:3)
t_x_1941                                            1 	(obj:35)
t_x_1944                                            1 	(obj:55)
t_x_1946                                            1 	(obj:6)
t_x_1948                                            1 	(obj:42)
t_x_1949                                            1 	(obj:3)
t_x_1951                                            1 	(obj:6)
t_x_1952                                            1 	(obj:33)
t_x_1958                                            1 	(obj:7)
t_x_1960                                            1 	(obj:32)
t_x_1961                                            1 	(obj:18)
t_x_1967                                            1 	(obj:1)
t_x_1970                                            1 	(obj:13)
t_x_1971                                            1 	(obj:2)
t_x_1976                                            1 	(obj:2)
t_x_1978                                            1 	(obj:18)
t_x_1979                                            1 	(obj:2)
t_x_1981                                            1 	(obj:17)
t_x_1982                                            1 	(obj:13)
t_x_1984                                            1 	(obj:4)
t_x_1987                                            1 	(obj:24)
t_x_1989                                            1 	(obj:0)
t_x_1990                                            1 	(obj:7)
t_x_1994                                            1 	(obj:20)
t_x_1995                                            1 	(obj:3)
t_x_1999                                            1 	(obj:40)
